p edge 25 36
e 1 7
e 1 25
e 2 10
e 2 12
e 2 18
e 3 10
e 3 13
e 3 17
e 3 23
e 4 10
e 4 21
e 4 22
e 5 14
e 5 17
e 5 25
e 6 9
e 6 19
e 7 10
e 7 18
e 8 16
e 8 25
e 10 14
e 11 14
e 11 23
e 13 14
e 13 15
e 13 24
e 14 22
e 14 23
e 14 25
e 16 17
e 19 22
e 20 23
e 22 23
e 23 24
e 24 25
